c Generated map
c Size: 30 * 30, weights in range: 1 to 10, walls: True, with ratio 0.1
c dim 2 of 3
c
p sp 900 1415
c graph contains 900 nodes and 1415 arcs
c
a 1 31 3
a 31 1 3
a 1 2 10
a 2 1 10
a 2 32 5
a 32 2 5
a 2 3 10
a 3 2 10
a 3 33 6
a 33 3 6
a 3 4 9
a 4 3 9
a 4 34 9
a 34 4 9
a 6 36 8
a 36 6 8
a 6 7 4
a 7 6 4
a 7 37 7
a 37 7 7
a 9 39 3
a 39 9 3
a 11 41 4
a 41 11 4
a 11 12 6
a 12 11 6
a 12 42 8
a 42 12 8
a 12 13 7
a 13 12 7
a 13 43 3
a 43 13 3
a 13 14 2
a 14 13 2
a 14 44 10
a 44 14 10
a 14 15 8
a 15 14 8
a 15 45 4
a 45 15 4
a 15 16 1
a 16 15 1
a 16 46 8
a 46 16 8
a 16 17 7
a 17 16 7
a 17 47 5
a 47 17 5
a 17 18 4
a 18 17 4
a 18 19 7
a 19 18 7
a 19 49 8
a 49 19 8
a 19 20 7
a 20 19 7
a 20 50 6
a 50 20 6
a 20 21 1
a 21 20 1
a 21 51 1
a 51 21 1
a 21 22 1
a 22 21 1
a 22 52 2
a 52 22 2
a 22 23 10
a 23 22 10
a 23 53 8
a 53 23 8
a 23 24 7
a 24 23 7
a 24 54 3
a 54 24 3
a 24 25 3
a 25 24 3
a 25 55 10
a 55 25 10
a 25 26 3
a 26 25 3
a 26 56 3
a 56 26 3
a 26 27 6
a 27 26 6
a 27 57 6
a 57 27 6
a 27 28 10
a 28 27 10
a 28 58 9
a 58 28 9
a 28 29 10
a 29 28 10
a 31 61 8
a 61 31 8
a 31 32 9
a 32 31 9
a 32 62 7
a 62 32 7
a 32 33 1
a 33 32 1
a 33 63 1
a 63 33 1
a 33 34 5
a 34 33 5
a 34 64 5
a 64 34 5
a 34 35 4
a 35 34 4
a 35 65 8
a 65 35 8
a 35 36 6
a 36 35 6
a 36 66 8
a 66 36 8
a 36 37 8
a 37 36 8
a 37 67 8
a 67 37 8
a 37 38 6
a 38 37 6
a 38 68 1
a 68 38 1
a 38 39 4
a 39 38 4
a 39 69 8
a 69 39 8
a 39 40 4
a 40 39 4
a 40 70 5
a 70 40 5
a 40 41 8
a 41 40 8
a 41 71 4
a 71 41 4
a 41 42 1
a 42 41 1
a 42 72 1
a 72 42 1
a 42 43 4
a 43 42 4
a 43 73 4
a 73 43 4
a 43 44 4
a 44 43 4
a 44 74 7
a 74 44 7
a 44 45 5
a 45 44 5
a 45 75 9
a 75 45 9
a 45 46 1
a 46 45 1
a 46 76 9
a 76 46 9
a 46 47 2
a 47 46 2
a 47 77 2
a 77 47 2
a 49 79 10
a 79 49 10
a 49 50 3
a 50 49 3
a 50 80 8
a 80 50 8
a 50 51 7
a 51 50 7
a 51 81 8
a 81 51 8
a 51 52 1
a 52 51 1
a 52 53 2
a 53 52 2
a 53 83 1
a 83 53 1
a 53 54 9
a 54 53 9
a 54 84 5
a 84 54 5
a 54 55 1
a 55 54 1
a 55 85 6
a 85 55 6
a 55 56 1
a 56 55 1
a 56 86 6
a 86 56 6
a 56 57 7
a 57 56 7
a 57 87 2
a 87 57 2
a 57 58 3
a 58 57 3
a 58 88 10
a 88 58 10
a 60 90 9
a 90 60 9
a 61 91 3
a 91 61 3
a 61 62 7
a 62 61 7
a 62 92 3
a 92 62 3
a 62 63 9
a 63 62 9
a 63 93 3
a 93 63 3
a 63 64 1
a 64 63 1
a 64 94 5
a 94 64 5
a 64 65 8
a 65 64 8
a 65 95 3
a 95 65 3
a 65 66 4
a 66 65 4
a 66 96 9
a 96 66 9
a 66 67 10
a 67 66 10
a 67 97 4
a 97 67 4
a 67 68 3
a 68 67 3
a 68 98 9
a 98 68 9
a 68 69 1
a 69 68 1
a 69 99 5
a 99 69 5
a 69 70 6
a 70 69 6
a 70 100 10
a 100 70 10
a 70 71 3
a 71 70 3
a 71 101 5
a 101 71 5
a 71 72 5
a 72 71 5
a 72 102 6
a 102 72 6
a 72 73 6
a 73 72 6
a 73 103 7
a 103 73 7
a 73 74 8
a 74 73 8
a 74 104 5
a 104 74 5
a 74 75 9
a 75 74 9
a 75 105 5
a 105 75 5
a 75 76 9
a 76 75 9
a 76 106 2
a 106 76 2
a 76 77 4
a 77 76 4
a 77 107 8
a 107 77 8
a 79 109 4
a 109 79 4
a 79 80 1
a 80 79 1
a 80 110 10
a 110 80 10
a 80 81 10
a 81 80 10
a 81 111 8
a 111 81 8
a 83 113 4
a 113 83 4
a 83 84 4
a 84 83 4
a 84 114 4
a 114 84 4
a 84 85 9
a 85 84 9
a 85 115 7
a 115 85 7
a 85 86 8
a 86 85 8
a 86 116 7
a 116 86 7
a 86 87 6
a 87 86 6
a 87 117 1
a 117 87 1
a 87 88 3
a 88 87 3
a 88 118 9
a 118 88 9
a 88 89 5
a 89 88 5
a 89 119 2
a 119 89 2
a 89 90 3
a 90 89 3
a 90 120 10
a 120 90 10
a 91 121 1
a 121 91 1
a 91 92 6
a 92 91 6
a 92 122 7
a 122 92 7
a 92 93 1
a 93 92 1
a 93 123 5
a 123 93 5
a 93 94 2
a 94 93 2
a 94 124 5
a 124 94 5
a 94 95 7
a 95 94 7
a 95 125 1
a 125 95 1
a 95 96 1
a 96 95 1
a 96 126 10
a 126 96 10
a 96 97 7
a 97 96 7
a 97 127 9
a 127 97 9
a 97 98 9
a 98 97 9
a 98 99 9
a 99 98 9
a 99 129 2
a 129 99 2
a 99 100 9
a 100 99 9
a 100 130 5
a 130 100 5
a 100 101 6
a 101 100 6
a 101 131 9
a 131 101 9
a 101 102 6
a 102 101 6
a 102 132 1
a 132 102 1
a 102 103 8
a 103 102 8
a 103 133 9
a 133 103 9
a 103 104 10
a 104 103 10
a 104 134 5
a 134 104 5
a 104 105 9
a 105 104 9
a 105 135 2
a 135 105 2
a 105 106 10
a 106 105 10
a 106 136 5
a 136 106 5
a 106 107 4
a 107 106 4
a 107 137 8
a 137 107 8
a 107 108 3
a 108 107 3
a 108 138 5
a 138 108 5
a 108 109 1
a 109 108 1
a 109 139 2
a 139 109 2
a 109 110 4
a 110 109 4
a 110 140 8
a 140 110 8
a 110 111 5
a 111 110 5
a 111 141 8
a 141 111 8
a 111 112 9
a 112 111 9
a 112 142 3
a 142 112 3
a 112 113 7
a 113 112 7
a 113 143 4
a 143 113 4
a 113 114 8
a 114 113 8
a 114 144 10
a 144 114 10
a 114 115 5
a 115 114 5
a 115 145 5
a 145 115 5
a 115 116 10
a 116 115 10
a 116 146 7
a 146 116 7
a 116 117 7
a 117 116 7
a 117 147 6
a 147 117 6
a 117 118 3
a 118 117 3
a 118 148 2
a 148 118 2
a 118 119 4
a 119 118 4
a 119 120 1
a 120 119 1
a 120 150 3
a 150 120 3
a 121 151 7
a 151 121 7
a 121 122 8
a 122 121 8
a 122 152 4
a 152 122 4
a 122 123 8
a 123 122 8
a 123 153 6
a 153 123 6
a 123 124 5
a 124 123 5
a 124 125 7
a 125 124 7
a 125 155 2
a 155 125 2
a 125 126 10
a 126 125 10
a 126 156 6
a 156 126 6
a 126 127 10
a 127 126 10
a 127 157 9
a 157 127 9
a 129 159 1
a 159 129 1
a 129 130 8
a 130 129 8
a 130 160 2
a 160 130 2
a 130 131 5
a 131 130 5
a 131 161 10
a 161 131 10
a 131 132 10
a 132 131 10
a 132 162 8
a 162 132 8
a 132 133 5
a 133 132 5
a 133 163 3
a 163 133 3
a 133 134 10
a 134 133 10
a 134 135 2
a 135 134 2
a 135 165 3
a 165 135 3
a 135 136 9
a 136 135 9
a 136 166 1
a 166 136 1
a 136 137 1
a 137 136 1
a 137 167 3
a 167 137 3
a 137 138 5
a 138 137 5
a 138 168 1
a 168 138 1
a 138 139 8
a 139 138 8
a 139 169 8
a 169 139 8
a 139 140 1
a 140 139 1
a 140 170 4
a 170 140 4
a 140 141 9
a 141 140 9
a 141 171 8
a 171 141 8
a 141 142 1
a 142 141 1
a 142 143 8
a 143 142 8
a 143 173 7
a 173 143 7
a 143 144 3
a 144 143 3
a 144 174 6
a 174 144 6
a 144 145 7
a 145 144 7
a 145 175 3
a 175 145 3
a 145 146 3
a 146 145 3
a 146 176 2
a 176 146 2
a 146 147 7
a 147 146 7
a 147 177 4
a 177 147 4
a 147 148 8
a 148 147 8
a 148 178 2
a 178 148 2
a 150 180 3
a 180 150 3
a 151 181 1
a 181 151 1
a 151 152 6
a 152 151 6
a 152 182 8
a 182 152 8
a 152 153 4
a 153 152 4
a 155 185 1
a 185 155 1
a 155 156 5
a 156 155 5
a 156 186 3
a 186 156 3
a 156 157 2
a 157 156 2
a 157 187 6
a 187 157 6
a 159 189 5
a 189 159 5
a 159 160 8
a 160 159 8
a 160 190 4
a 190 160 4
a 160 161 4
a 161 160 4
a 161 191 1
a 191 161 1
a 161 162 8
a 162 161 8
a 162 192 10
a 192 162 10
a 162 163 9
a 163 162 9
a 163 193 9
a 193 163 9
a 165 195 8
a 195 165 8
a 165 166 6
a 166 165 6
a 166 167 9
a 167 166 9
a 167 197 3
a 197 167 3
a 167 168 4
a 168 167 4
a 168 198 4
a 198 168 4
a 168 169 8
a 169 168 8
a 169 170 1
a 170 169 1
a 170 200 10
a 200 170 10
a 170 171 8
a 171 170 8
a 171 201 1
a 201 171 1
a 173 203 2
a 203 173 2
a 173 174 7
a 174 173 7
a 174 204 4
a 204 174 4
a 174 175 8
a 175 174 8
a 175 205 1
a 205 175 1
a 175 176 8
a 176 175 8
a 176 206 6
a 206 176 6
a 176 177 5
a 177 176 5
a 177 207 7
a 207 177 7
a 177 178 10
a 178 177 10
a 178 208 8
a 208 178 8
a 178 179 3
a 179 178 3
a 179 209 5
a 209 179 5
a 179 180 7
a 180 179 7
a 180 210 8
a 210 180 8
a 181 182 8
a 182 181 8
a 182 212 3
a 212 182 3
a 184 214 3
a 214 184 3
a 184 185 4
a 185 184 4
a 185 215 4
a 215 185 4
a 185 186 3
a 186 185 3
a 186 216 2
a 216 186 2
a 186 187 8
a 187 186 8
a 187 217 3
a 217 187 3
a 187 188 8
a 188 187 8
a 188 218 5
a 218 188 5
a 188 189 9
a 189 188 9
a 189 219 5
a 219 189 5
a 189 190 7
a 190 189 7
a 190 220 7
a 220 190 7
a 190 191 8
a 191 190 8
a 191 192 9
a 192 191 9
a 192 222 7
a 222 192 7
a 192 193 4
a 193 192 4
a 193 223 7
a 223 193 7
a 193 194 5
a 194 193 5
a 194 224 3
a 224 194 3
a 194 195 10
a 195 194 10
a 195 225 4
a 225 195 4
a 197 227 7
a 227 197 7
a 197 198 7
a 198 197 7
a 198 228 8
a 228 198 8
a 200 230 8
a 230 200 8
a 200 201 1
a 201 200 1
a 201 231 6
a 231 201 6
a 201 202 9
a 202 201 9
a 202 232 9
a 232 202 9
a 202 203 4
a 203 202 4
a 203 233 6
a 233 203 6
a 203 204 9
a 204 203 9
a 204 234 10
a 234 204 10
a 204 205 6
a 205 204 6
a 205 206 7
a 206 205 7
a 206 236 8
a 236 206 8
a 206 207 6
a 207 206 6
a 207 237 4
a 237 207 4
a 207 208 4
a 208 207 4
a 208 209 4
a 209 208 4
a 209 239 6
a 239 209 6
a 209 210 4
a 210 209 4
a 210 240 10
a 240 210 10
a 212 242 4
a 242 212 4
a 214 244 5
a 244 214 5
a 214 215 1
a 215 214 1
a 215 245 2
a 245 215 2
a 215 216 6
a 216 215 6
a 216 246 7
a 246 216 7
a 216 217 10
a 217 216 10
a 217 247 1
a 247 217 1
a 217 218 7
a 218 217 7
a 218 248 8
a 248 218 8
a 218 219 5
a 219 218 5
a 219 249 7
a 249 219 7
a 219 220 10
a 220 219 10
a 220 250 9
a 250 220 9
a 222 252 5
a 252 222 5
a 222 223 7
a 223 222 7
a 223 253 8
a 253 223 8
a 223 224 10
a 224 223 10
a 224 254 5
a 254 224 5
a 224 225 4
a 225 224 4
a 225 255 10
a 255 225 10
a 227 257 2
a 257 227 2
a 227 228 10
a 228 227 10
a 228 258 2
a 258 228 2
a 228 229 10
a 229 228 10
a 229 259 3
a 259 229 3
a 229 230 7
a 230 229 7
a 230 260 5
a 260 230 5
a 230 231 10
a 231 230 10
a 231 261 1
a 261 231 1
a 231 232 6
a 232 231 6
a 232 262 10
a 262 232 10
a 232 233 10
a 233 232 10
a 233 263 1
a 263 233 1
a 233 234 7
a 234 233 7
a 234 264 1
a 264 234 1
a 236 266 7
a 266 236 7
a 236 237 6
a 237 236 6
a 237 267 3
a 267 237 3
a 239 269 2
a 269 239 2
a 239 240 7
a 240 239 7
a 240 270 1
a 270 240 1
a 241 271 5
a 271 241 5
a 241 242 5
a 242 241 5
a 242 272 5
a 272 242 5
a 242 243 8
a 243 242 8
a 243 273 7
a 273 243 7
a 243 244 9
a 244 243 9
a 244 274 3
a 274 244 3
a 244 245 6
a 245 244 6
a 245 275 9
a 275 245 9
a 245 246 8
a 246 245 8
a 246 276 10
a 276 246 10
a 246 247 8
a 247 246 8
a 247 277 2
a 277 247 2
a 247 248 9
a 248 247 9
a 248 278 4
a 278 248 4
a 248 249 5
a 249 248 5
a 249 279 1
a 279 249 1
a 249 250 9
a 250 249 9
a 250 280 3
a 280 250 3
a 250 251 10
a 251 250 10
a 251 281 10
a 281 251 10
a 251 252 5
a 252 251 5
a 252 282 2
a 282 252 2
a 252 253 3
a 253 252 3
a 253 283 3
a 283 253 3
a 253 254 9
a 254 253 9
a 254 284 2
a 284 254 2
a 254 255 2
a 255 254 2
a 255 285 4
a 285 255 4
a 255 256 6
a 256 255 6
a 256 286 5
a 286 256 5
a 256 257 10
a 257 256 10
a 257 287 3
a 287 257 3
a 257 258 8
a 258 257 8
a 258 288 9
a 288 258 9
a 258 259 1
a 259 258 1
a 259 289 4
a 289 259 4
a 259 260 4
a 260 259 4
a 260 290 6
a 290 260 6
a 260 261 7
a 261 260 7
a 261 291 10
a 291 261 10
a 261 262 9
a 262 261 9
a 262 292 8
a 292 262 8
a 262 263 3
a 263 262 3
a 263 293 7
a 293 263 7
a 263 264 8
a 264 263 8
a 264 294 9
a 294 264 9
a 264 265 8
a 265 264 8
a 265 295 1
a 295 265 1
a 265 266 5
a 266 265 5
a 266 296 4
a 296 266 4
a 266 267 4
a 267 266 4
a 267 297 4
a 297 267 4
a 269 299 5
a 299 269 5
a 269 270 9
a 270 269 9
a 271 272 9
a 272 271 9
a 272 302 3
a 302 272 3
a 272 273 5
a 273 272 5
a 273 303 7
a 303 273 7
a 273 274 7
a 274 273 7
a 274 304 9
a 304 274 9
a 274 275 6
a 275 274 6
a 275 305 8
a 305 275 8
a 275 276 9
a 276 275 9
a 276 306 5
a 306 276 5
a 276 277 1
a 277 276 1
a 277 307 9
a 307 277 9
a 277 278 2
a 278 277 2
a 278 308 10
a 308 278 10
a 278 279 8
a 279 278 8
a 279 309 2
a 309 279 2
a 279 280 5
a 280 279 5
a 280 310 2
a 310 280 2
a 280 281 8
a 281 280 8
a 281 311 7
a 311 281 7
a 281 282 10
a 282 281 10
a 282 283 5
a 283 282 5
a 283 284 2
a 284 283 2
a 284 314 9
a 314 284 9
a 284 285 3
a 285 284 3
a 285 315 6
a 315 285 6
a 285 286 5
a 286 285 5
a 286 287 6
a 287 286 6
a 287 317 5
a 317 287 5
a 287 288 9
a 288 287 9
a 288 318 8
a 318 288 8
a 288 289 5
a 289 288 5
a 289 319 10
a 319 289 10
a 289 290 7
a 290 289 7
a 290 320 10
a 320 290 10
a 290 291 5
a 291 290 5
a 291 321 2
a 321 291 2
a 291 292 2
a 292 291 2
a 292 322 2
a 322 292 2
a 292 293 5
a 293 292 5
a 293 323 3
a 323 293 3
a 293 294 7
a 294 293 7
a 294 324 10
a 324 294 10
a 294 295 7
a 295 294 7
a 295 325 1
a 325 295 1
a 295 296 5
a 296 295 5
a 296 326 10
a 326 296 10
a 296 297 3
a 297 296 3
a 297 327 6
a 327 297 6
a 297 298 4
a 298 297 4
a 298 328 7
a 328 298 7
a 298 299 7
a 299 298 7
a 302 332 6
a 332 302 6
a 302 303 1
a 303 302 1
a 303 333 2
a 333 303 2
a 303 304 4
a 304 303 4
a 304 334 4
a 334 304 4
a 304 305 2
a 305 304 2
a 305 335 8
a 335 305 8
a 305 306 6
a 306 305 6
a 306 336 6
a 336 306 6
a 306 307 6
a 307 306 6
a 307 337 9
a 337 307 9
a 307 308 6
a 308 307 6
a 308 338 4
a 338 308 4
a 308 309 7
a 309 308 7
a 309 339 2
a 339 309 2
a 309 310 4
a 310 309 4
a 310 340 8
a 340 310 8
a 310 311 8
a 311 310 8
a 311 341 9
a 341 311 9
a 314 344 3
a 344 314 3
a 314 315 2
a 315 314 2
a 315 345 8
a 345 315 8
a 317 347 6
a 347 317 6
a 317 318 9
a 318 317 9
a 318 348 4
a 348 318 4
a 318 319 8
a 319 318 8
a 319 349 3
a 349 319 3
a 319 320 9
a 320 319 9
a 320 350 4
a 350 320 4
a 320 321 3
a 321 320 3
a 321 351 8
a 351 321 8
a 321 322 5
a 322 321 5
a 322 352 4
a 352 322 4
a 322 323 10
a 323 322 10
a 323 353 3
a 353 323 3
a 323 324 5
a 324 323 5
a 324 354 8
a 354 324 8
a 324 325 6
a 325 324 6
a 325 355 10
a 355 325 10
a 325 326 5
a 326 325 5
a 326 356 5
a 356 326 5
a 326 327 6
a 327 326 6
a 327 357 5
a 357 327 5
a 327 328 1
a 328 327 1
a 328 358 4
a 358 328 4
a 330 360 5
a 360 330 5
a 331 332 1
a 332 331 1
a 332 362 9
a 362 332 9
a 332 333 1
a 333 332 1
a 333 363 7
a 363 333 7
a 333 334 9
a 334 333 9
a 334 364 9
a 364 334 9
a 334 335 3
a 335 334 3
a 335 365 2
a 365 335 2
a 335 336 1
a 336 335 1
a 336 366 9
a 366 336 9
a 336 337 3
a 337 336 3
a 337 367 9
a 367 337 9
a 337 338 2
a 338 337 2
a 338 368 7
a 368 338 7
a 338 339 3
a 339 338 3
a 339 369 7
a 369 339 7
a 339 340 10
a 340 339 10
a 340 370 3
a 370 340 3
a 340 341 2
a 341 340 2
a 341 371 4
a 371 341 4
a 341 342 6
a 342 341 6
a 342 372 7
a 372 342 7
a 342 343 8
a 343 342 8
a 343 373 5
a 373 343 5
a 343 344 9
a 344 343 9
a 344 345 9
a 345 344 9
a 345 375 5
a 375 345 5
a 345 346 3
a 346 345 3
a 346 347 3
a 347 346 3
a 347 348 6
a 348 347 6
a 348 378 10
a 378 348 10
a 348 349 7
a 349 348 7
a 349 379 3
a 379 349 3
a 349 350 1
a 350 349 1
a 350 380 10
a 380 350 10
a 350 351 9
a 351 350 9
a 351 352 10
a 352 351 10
a 352 382 10
a 382 352 10
a 352 353 6
a 353 352 6
a 353 383 6
a 383 353 6
a 353 354 5
a 354 353 5
a 354 384 2
a 384 354 2
a 354 355 7
a 355 354 7
a 355 385 4
a 385 355 4
a 355 356 9
a 356 355 9
a 356 386 8
a 386 356 8
a 356 357 4
a 357 356 4
a 357 387 1
a 387 357 1
a 357 358 3
a 358 357 3
a 358 388 4
a 388 358 4
a 358 359 8
a 359 358 8
a 359 360 7
a 360 359 7
a 360 390 3
a 390 360 3
a 362 363 10
a 363 362 10
a 363 393 9
a 393 363 9
a 363 364 5
a 364 363 5
a 364 394 8
a 394 364 8
a 364 365 3
a 365 364 3
a 365 395 3
a 395 365 3
a 365 366 9
a 366 365 9
a 366 396 7
a 396 366 7
a 366 367 2
a 367 366 2
a 367 397 5
a 397 367 5
a 367 368 8
a 368 367 8
a 368 398 7
a 398 368 7
a 368 369 10
a 369 368 10
a 369 399 10
a 399 369 10
a 369 370 7
a 370 369 7
a 370 400 2
a 400 370 2
a 370 371 9
a 371 370 9
a 371 401 8
a 401 371 8
a 371 372 1
a 372 371 1
a 372 402 1
a 402 372 1
a 372 373 3
a 373 372 3
a 375 405 3
a 405 375 3
a 378 408 8
a 408 378 8
a 378 379 3
a 379 378 3
a 379 409 10
a 409 379 10
a 379 380 9
a 380 379 9
a 380 410 10
a 410 380 10
a 382 412 3
a 412 382 3
a 382 383 3
a 383 382 3
a 383 413 8
a 413 383 8
a 383 384 1
a 384 383 1
a 384 414 3
a 414 384 3
a 384 385 4
a 385 384 4
a 385 386 8
a 386 385 8
a 386 416 8
a 416 386 8
a 386 387 10
a 387 386 10
a 387 417 4
a 417 387 4
a 387 388 6
a 388 387 6
a 388 418 7
a 418 388 7
a 390 420 5
a 420 390 5
a 391 421 7
a 421 391 7
a 393 423 9
a 423 393 9
a 393 394 1
a 394 393 1
a 394 424 7
a 424 394 7
a 394 395 7
a 395 394 7
a 395 425 10
a 425 395 10
a 395 396 7
a 396 395 7
a 396 426 9
a 426 396 9
a 396 397 10
a 397 396 10
a 397 427 9
a 427 397 9
a 397 398 5
a 398 397 5
a 398 428 3
a 428 398 3
a 398 399 2
a 399 398 2
a 399 429 6
a 429 399 6
a 399 400 1
a 400 399 1
a 400 430 5
a 430 400 5
a 400 401 7
a 401 400 7
a 401 431 5
a 431 401 5
a 401 402 6
a 402 401 6
a 402 432 9
a 432 402 9
a 404 434 3
a 434 404 3
a 404 405 2
a 405 404 2
a 405 435 3
a 435 405 3
a 408 438 3
a 438 408 3
a 408 409 3
a 409 408 3
a 409 439 3
a 439 409 3
a 409 410 3
a 410 409 3
a 410 440 5
a 440 410 5
a 410 411 9
a 411 410 9
a 411 441 6
a 441 411 6
a 411 412 7
a 412 411 7
a 412 442 1
a 442 412 1
a 412 413 2
a 413 412 2
a 413 443 6
a 443 413 6
a 413 414 1
a 414 413 1
a 414 444 9
a 444 414 9
a 416 446 4
a 446 416 4
a 416 417 9
a 417 416 9
a 417 447 2
a 447 417 2
a 417 418 8
a 418 417 8
a 418 448 9
a 448 418 9
a 418 419 3
a 419 418 3
a 419 449 1
a 449 419 1
a 419 420 8
a 420 419 8
a 420 450 6
a 450 420 6
a 421 451 7
a 451 421 7
a 423 453 10
a 453 423 10
a 423 424 7
a 424 423 7
a 424 454 4
a 454 424 4
a 424 425 10
a 425 424 10
a 425 455 10
a 455 425 10
a 425 426 8
a 426 425 8
a 426 456 1
a 456 426 1
a 426 427 7
a 427 426 7
a 427 457 1
a 457 427 1
a 427 428 8
a 428 427 8
a 428 458 10
a 458 428 10
a 428 429 4
a 429 428 4
a 429 459 5
a 459 429 5
a 429 430 1
a 430 429 1
a 430 460 4
a 460 430 4
a 430 431 8
a 431 430 8
a 431 461 5
a 461 431 5
a 431 432 5
a 432 431 5
a 432 462 1
a 462 432 1
a 432 433 1
a 433 432 1
a 433 463 1
a 463 433 1
a 433 434 1
a 434 433 1
a 434 464 2
a 464 434 2
a 434 435 8
a 435 434 8
a 435 465 8
a 465 435 8
a 435 436 6
a 436 435 6
a 436 466 9
a 466 436 9
a 436 437 1
a 437 436 1
a 437 467 5
a 467 437 5
a 437 438 7
a 438 437 7
a 438 468 8
a 468 438 8
a 438 439 2
a 439 438 2
a 439 469 1
a 469 439 1
a 439 440 9
a 440 439 9
a 440 470 9
a 470 440 9
a 440 441 1
a 441 440 1
a 441 471 1
a 471 441 1
a 441 442 8
a 442 441 8
a 442 472 7
a 472 442 7
a 442 443 10
a 443 442 10
a 443 473 10
a 473 443 10
a 443 444 6
a 444 443 6
a 444 474 1
a 474 444 1
a 444 445 9
a 445 444 9
a 445 475 3
a 475 445 3
a 445 446 7
a 446 445 7
a 446 476 3
a 476 446 3
a 446 447 3
a 447 446 3
a 447 477 8
a 477 447 8
a 447 448 4
a 448 447 4
a 448 478 6
a 478 448 6
a 448 449 7
a 449 448 7
a 449 479 6
a 479 449 6
a 449 450 2
a 450 449 2
a 450 480 5
a 480 450 5
a 451 481 1
a 481 451 1
a 451 452 4
a 452 451 4
a 452 482 2
a 482 452 2
a 452 453 5
a 453 452 5
a 453 483 9
a 483 453 9
a 453 454 1
a 454 453 1
a 454 484 3
a 484 454 3
a 454 455 10
a 455 454 10
a 455 456 10
a 456 455 10
a 456 486 6
a 486 456 6
a 456 457 2
a 457 456 2
a 457 487 10
a 487 457 10
a 457 458 7
a 458 457 7
a 458 488 2
a 488 458 2
a 458 459 5
a 459 458 5
a 459 489 5
a 489 459 5
a 459 460 10
a 460 459 10
a 460 490 5
a 490 460 5
a 460 461 10
a 461 460 10
a 461 491 4
a 491 461 4
a 461 462 9
a 462 461 9
a 462 492 1
a 492 462 1
a 462 463 6
a 463 462 6
a 463 493 8
a 493 463 8
a 463 464 1
a 464 463 1
a 464 494 3
a 494 464 3
a 464 465 5
a 465 464 5
a 465 495 4
a 495 465 4
a 465 466 3
a 466 465 3
a 466 496 3
a 496 466 3
a 466 467 3
a 467 466 3
a 467 497 10
a 497 467 10
a 467 468 5
a 468 467 5
a 468 498 8
a 498 468 8
a 468 469 1
a 469 468 1
a 469 499 9
a 499 469 9
a 469 470 3
a 470 469 3
a 470 500 3
a 500 470 3
a 470 471 2
a 471 470 2
a 471 501 10
a 501 471 10
a 471 472 7
a 472 471 7
a 472 502 4
a 502 472 4
a 472 473 5
a 473 472 5
a 473 503 4
a 503 473 4
a 473 474 5
a 474 473 5
a 474 504 2
a 504 474 2
a 474 475 2
a 475 474 2
a 475 505 7
a 505 475 7
a 475 476 8
a 476 475 8
a 476 506 8
a 506 476 8
a 476 477 2
a 477 476 2
a 477 507 6
a 507 477 6
a 477 478 2
a 478 477 2
a 478 479 2
a 479 478 2
a 479 509 7
a 509 479 7
a 479 480 6
a 480 479 6
a 480 510 10
a 510 480 10
a 481 482 1
a 482 481 1
a 482 483 1
a 483 482 1
a 483 513 7
a 513 483 7
a 483 484 4
a 484 483 4
a 484 514 8
a 514 484 8
a 486 516 5
a 516 486 5
a 486 487 6
a 487 486 6
a 487 488 1
a 488 487 1
a 488 518 9
a 518 488 9
a 488 489 2
a 489 488 2
a 489 519 1
a 519 489 1
a 489 490 10
a 490 489 10
a 490 520 6
a 520 490 6
a 490 491 5
a 491 490 5
a 491 521 2
a 521 491 2
a 491 492 9
a 492 491 9
a 492 493 10
a 493 492 10
a 493 523 3
a 523 493 3
a 493 494 4
a 494 493 4
a 494 524 4
a 524 494 4
a 494 495 5
a 495 494 5
a 495 525 3
a 525 495 3
a 495 496 10
a 496 495 10
a 496 526 1
a 526 496 1
a 496 497 8
a 497 496 8
a 497 527 9
a 527 497 9
a 497 498 8
a 498 497 8
a 498 528 5
a 528 498 5
a 498 499 3
a 499 498 3
a 499 500 3
a 500 499 3
a 500 530 10
a 530 500 10
a 500 501 2
a 501 500 2
a 501 531 5
a 531 501 5
a 501 502 7
a 502 501 7
a 502 532 4
a 532 502 4
a 502 503 4
a 503 502 4
a 503 533 3
a 533 503 3
a 503 504 10
a 504 503 10
a 504 534 3
a 534 504 3
a 504 505 1
a 505 504 1
a 505 535 6
a 535 505 6
a 505 506 10
a 506 505 10
a 506 536 4
a 536 506 4
a 506 507 6
a 507 506 6
a 507 537 6
a 537 507 6
a 509 510 3
a 510 509 3
a 510 540 6
a 540 510 6
a 513 543 2
a 543 513 2
a 513 514 10
a 514 513 10
a 514 544 9
a 544 514 9
a 514 515 5
a 515 514 5
a 515 545 9
a 545 515 9
a 515 516 5
a 516 515 5
a 516 546 3
a 546 516 3
a 518 548 6
a 548 518 6
a 518 519 10
a 519 518 10
a 519 549 9
a 549 519 9
a 519 520 1
a 520 519 1
a 520 550 10
a 550 520 10
a 520 521 6
a 521 520 6
a 521 551 6
a 551 521 6
a 523 553 2
a 553 523 2
a 523 524 5
a 524 523 5
a 524 554 7
a 554 524 7
a 524 525 5
a 525 524 5
a 525 555 3
a 555 525 3
a 525 526 6
a 526 525 6
a 526 556 9
a 556 526 9
a 526 527 7
a 527 526 7
a 527 557 6
a 557 527 6
a 527 528 10
a 528 527 10
a 528 558 8
a 558 528 8
a 530 531 3
a 531 530 3
a 531 532 7
a 532 531 7
a 532 533 2
a 533 532 2
a 533 563 2
a 563 533 2
a 533 534 1
a 534 533 1
a 534 564 9
a 564 534 9
a 534 535 9
a 535 534 9
a 535 565 9
a 565 535 9
a 535 536 6
a 536 535 6
a 536 566 5
a 566 536 5
a 536 537 1
a 537 536 1
a 537 567 1
a 567 537 1
a 537 538 10
a 538 537 10
a 538 568 10
a 568 538 10
a 540 570 9
a 570 540 9
a 541 571 4
a 571 541 4
a 541 542 5
a 542 541 5
a 542 572 2
a 572 542 2
a 542 543 1
a 543 542 1
a 543 573 9
a 573 543 9
a 543 544 4
a 544 543 4
a 544 574 7
a 574 544 7
a 544 545 7
a 545 544 7
a 545 575 8
a 575 545 8
a 545 546 2
a 546 545 2
a 546 576 5
a 576 546 5
a 546 547 9
a 547 546 9
a 547 577 4
a 577 547 4
a 547 548 4
a 548 547 4
a 548 578 4
a 578 548 4
a 548 549 3
a 549 548 3
a 549 579 4
a 579 549 4
a 549 550 3
a 550 549 3
a 550 580 9
a 580 550 9
a 550 551 10
a 551 550 10
a 551 581 7
a 581 551 7
a 551 552 8
a 552 551 8
a 552 582 10
a 582 552 10
a 552 553 5
a 553 552 5
a 553 583 2
a 583 553 2
a 553 554 6
a 554 553 6
a 554 584 2
a 584 554 2
a 554 555 10
a 555 554 10
a 555 585 9
a 585 555 9
a 555 556 10
a 556 555 10
a 556 586 8
a 586 556 8
a 556 557 7
a 557 556 7
a 557 587 5
a 587 557 5
a 557 558 1
a 558 557 1
a 558 588 1
a 588 558 1
a 558 559 10
a 559 558 10
a 563 593 5
a 593 563 5
a 563 564 8
a 564 563 8
a 564 594 7
a 594 564 7
a 564 565 9
a 565 564 9
a 565 595 1
a 595 565 1
a 565 566 6
a 566 565 6
a 566 596 6
a 596 566 6
a 566 567 1
a 567 566 1
a 567 597 10
a 597 567 10
a 567 568 6
a 568 567 6
a 568 569 5
a 569 568 5
a 569 599 6
a 599 569 6
a 569 570 2
a 570 569 2
a 571 601 6
a 601 571 6
a 571 572 8
a 572 571 8
a 572 602 3
a 602 572 3
a 572 573 10
a 573 572 10
a 573 574 3
a 574 573 3
a 574 604 7
a 604 574 7
a 574 575 7
a 575 574 7
a 575 605 4
a 605 575 4
a 575 576 8
a 576 575 8
a 576 577 3
a 577 576 3
a 577 607 10
a 607 577 10
a 577 578 9
a 578 577 9
a 578 608 4
a 608 578 4
a 578 579 8
a 579 578 8
a 579 609 4
a 609 579 4
a 579 580 10
a 580 579 10
a 580 610 6
a 610 580 6
a 580 581 2
a 581 580 2
a 581 611 1
a 611 581 1
a 581 582 10
a 582 581 10
a 582 612 4
a 612 582 4
a 582 583 8
a 583 582 8
a 583 584 5
a 584 583 5
a 584 614 7
a 614 584 7
a 584 585 3
a 585 584 3
a 585 615 5
a 615 585 5
a 585 586 6
a 586 585 6
a 586 616 7
a 616 586 7
a 586 587 1
a 587 586 1
a 587 617 4
a 617 587 4
a 587 588 4
a 588 587 4
a 588 618 9
a 618 588 9
a 590 620 9
a 620 590 9
a 590 591 2
a 591 590 2
a 591 621 6
a 621 591 6
a 591 592 1
a 592 591 1
a 592 622 2
a 622 592 2
a 592 593 5
a 593 592 5
a 593 594 9
a 594 593 9
a 594 624 5
a 624 594 5
a 594 595 5
a 595 594 5
a 595 625 2
a 625 595 2
a 595 596 4
a 596 595 4
a 596 626 9
a 626 596 9
a 596 597 6
a 597 596 6
a 599 629 10
a 629 599 10
a 601 631 3
a 631 601 3
a 601 602 4
a 602 601 4
a 602 632 2
a 632 602 2
a 604 634 10
a 634 604 10
a 604 605 10
a 605 604 10
a 605 635 3
a 635 605 3
a 607 637 1
a 637 607 1
a 607 608 7
a 608 607 7
a 608 638 3
a 638 608 3
a 608 609 8
a 609 608 8
a 609 639 4
a 639 609 4
a 609 610 10
a 610 609 10
a 610 640 2
a 640 610 2
a 610 611 5
a 611 610 5
a 611 641 10
a 641 611 10
a 611 612 2
a 612 611 2
a 612 642 2
a 642 612 2
a 614 644 2
a 644 614 2
a 614 615 6
a 615 614 6
a 615 645 2
a 645 615 2
a 615 616 1
a 616 615 1
a 616 646 9
a 646 616 9
a 616 617 6
a 617 616 6
a 617 618 10
a 618 617 10
a 618 648 1
a 648 618 1
a 618 619 9
a 619 618 9
a 619 649 10
a 649 619 10
a 619 620 3
a 620 619 3
a 620 621 4
a 621 620 4
a 621 651 6
a 651 621 6
a 621 622 8
a 622 621 8
a 622 652 3
a 652 622 3
a 624 654 9
a 654 624 9
a 624 625 6
a 625 624 6
a 625 626 8
a 626 625 8
a 626 656 9
a 656 626 9
a 628 658 7
a 658 628 7
a 628 629 7
a 629 628 7
a 629 630 8
a 630 629 8
a 630 660 7
a 660 630 7
a 631 661 3
a 661 631 3
a 631 632 1
a 632 631 1
a 632 662 6
a 662 632 6
a 632 633 9
a 633 632 9
a 633 663 6
a 663 633 6
a 633 634 7
a 634 633 7
a 634 664 3
a 664 634 3
a 634 635 6
a 635 634 6
a 635 636 2
a 636 635 2
a 636 666 1
a 666 636 1
a 636 637 10
a 637 636 10
a 637 667 8
a 667 637 8
a 637 638 10
a 638 637 10
a 638 668 4
a 668 638 4
a 638 639 1
a 639 638 1
a 639 669 7
a 669 639 7
a 639 640 7
a 640 639 7
a 640 670 9
a 670 640 9
a 640 641 2
a 641 640 2
a 641 671 10
a 671 641 10
a 641 642 8
a 642 641 8
a 642 672 5
a 672 642 5
a 642 643 6
a 643 642 6
a 643 673 7
a 673 643 7
a 643 644 3
a 644 643 3
a 644 674 10
a 674 644 10
a 644 645 9
a 645 644 9
a 645 675 4
a 675 645 4
a 645 646 8
a 646 645 8
a 646 676 1
a 676 646 1
a 648 678 6
a 678 648 6
a 648 649 3
a 649 648 3
a 649 679 1
a 679 649 1
a 651 681 8
a 681 651 8
a 651 652 8
a 652 651 8
a 652 682 5
a 682 652 5
a 652 653 4
a 653 652 4
a 653 683 2
a 683 653 2
a 653 654 2
a 654 653 2
a 656 686 7
a 686 656 7
a 656 657 6
a 657 656 6
a 657 687 5
a 687 657 5
a 657 658 2
a 658 657 2
a 658 688 1
a 688 658 1
a 660 690 2
a 690 660 2
a 661 691 8
a 691 661 8
a 661 662 5
a 662 661 5
a 662 663 9
a 663 662 9
a 663 693 7
a 693 663 7
a 663 664 3
a 664 663 3
a 664 694 10
a 694 664 10
a 666 667 9
a 667 666 9
a 667 697 2
a 697 667 2
a 667 668 4
a 668 667 4
a 668 698 7
a 698 668 7
a 668 669 8
a 669 668 8
a 669 699 5
a 699 669 5
a 669 670 6
a 670 669 6
a 670 700 8
a 700 670 8
a 670 671 2
a 671 670 2
a 671 701 4
a 701 671 4
a 671 672 3
a 672 671 3
a 672 702 7
a 702 672 7
a 672 673 1
a 673 672 1
a 673 703 9
a 703 673 9
a 673 674 4
a 674 673 4
a 674 704 8
a 704 674 8
a 674 675 7
a 675 674 7
a 675 705 9
a 705 675 9
a 675 676 9
a 676 675 9
a 676 706 10
a 706 676 10
a 678 708 8
a 708 678 8
a 678 679 7
a 679 678 7
a 679 709 8
a 709 679 8
a 679 680 10
a 680 679 10
a 680 710 6
a 710 680 6
a 680 681 8
a 681 680 8
a 681 711 5
a 711 681 5
a 681 682 10
a 682 681 10
a 682 683 3
a 683 682 3
a 685 686 8
a 686 685 8
a 686 716 3
a 716 686 3
a 686 687 6
a 687 686 6
a 687 717 8
a 717 687 8
a 687 688 2
a 688 687 2
a 688 718 6
a 718 688 6
a 690 720 5
a 720 690 5
a 691 721 3
a 721 691 3
a 693 723 1
a 723 693 1
a 693 694 1
a 694 693 1
a 694 724 6
a 724 694 6
a 694 695 1
a 695 694 1
a 695 725 6
a 725 695 6
a 697 727 10
a 727 697 10
a 697 698 4
a 698 697 4
a 698 728 7
a 728 698 7
a 698 699 1
a 699 698 1
a 699 729 3
a 729 699 3
a 699 700 9
a 700 699 9
a 700 730 8
a 730 700 8
a 700 701 7
a 701 700 7
a 701 731 3
a 731 701 3
a 701 702 2
a 702 701 2
a 702 732 7
a 732 702 7
a 702 703 9
a 703 702 9
a 703 733 10
a 733 703 10
a 703 704 5
a 704 703 5
a 704 734 8
a 734 704 8
a 704 705 3
a 705 704 3
a 705 735 6
a 735 705 6
a 705 706 10
a 706 705 10
a 706 736 8
a 736 706 8
a 708 738 1
a 738 708 1
a 708 709 5
a 709 708 5
a 709 739 1
a 739 709 1
a 709 710 9
a 710 709 9
a 710 740 9
a 740 710 9
a 710 711 7
a 711 710 7
a 711 741 10
a 741 711 10
a 714 744 2
a 744 714 2
a 716 746 4
a 746 716 4
a 716 717 5
a 717 716 5
a 717 747 7
a 747 717 7
a 717 718 1
a 718 717 1
a 718 748 4
a 748 718 4
a 718 719 10
a 719 718 10
a 719 749 8
a 749 719 8
a 719 720 6
a 720 719 6
a 720 750 5
a 750 720 5
a 721 751 3
a 751 721 3
a 721 722 6
a 722 721 6
a 722 752 10
a 752 722 10
a 722 723 4
a 723 722 4
a 723 753 6
a 753 723 6
a 723 724 2
a 724 723 2
a 724 754 4
a 754 724 4
a 724 725 1
a 725 724 1
a 725 755 1
a 755 725 1
a 725 726 2
a 726 725 2
a 726 756 2
a 756 726 2
a 726 727 6
a 727 726 6
a 727 757 8
a 757 727 8
a 727 728 5
a 728 727 5
a 728 758 6
a 758 728 6
a 728 729 1
a 729 728 1
a 729 759 7
a 759 729 7
a 729 730 7
a 730 729 7
a 730 760 8
a 760 730 8
a 730 731 8
a 731 730 8
a 731 761 4
a 761 731 4
a 731 732 2
a 732 731 2
a 732 762 5
a 762 732 5
a 732 733 5
a 733 732 5
a 733 763 3
a 763 733 3
a 733 734 4
a 734 733 4
a 734 764 6
a 764 734 6
a 734 735 10
a 735 734 10
a 735 765 4
a 765 735 4
a 735 736 4
a 736 735 4
a 736 766 4
a 766 736 4
a 736 737 8
a 737 736 8
a 737 738 10
a 738 737 10
a 738 768 2
a 768 738 2
a 738 739 3
a 739 738 3
a 739 769 3
a 769 739 3
a 739 740 5
a 740 739 5
a 740 770 3
a 770 740 3
a 740 741 6
a 741 740 6
a 741 771 2
a 771 741 2
a 741 742 3
a 742 741 3
a 742 772 9
a 772 742 9
a 742 743 6
a 743 742 6
a 743 773 9
a 773 743 9
a 743 744 4
a 744 743 4
a 744 774 2
a 774 744 2
a 744 745 10
a 745 744 10
a 745 775 5
a 775 745 5
a 745 746 10
a 746 745 10
a 746 776 5
a 776 746 5
a 746 747 6
a 747 746 6
a 747 777 1
a 777 747 1
a 747 748 7
a 748 747 7
a 748 778 5
a 778 748 5
a 748 749 6
a 749 748 6
a 749 779 4
a 779 749 4
a 749 750 10
a 750 749 10
a 750 780 8
a 780 750 8
a 751 752 5
a 752 751 5
a 752 782 6
a 782 752 6
a 752 753 1
a 753 752 1
a 753 783 4
a 783 753 4
a 753 754 5
a 754 753 5
a 754 784 8
a 784 754 8
a 754 755 10
a 755 754 10
a 755 785 4
a 785 755 4
a 755 756 10
a 756 755 10
a 756 786 2
a 786 756 2
a 756 757 8
a 757 756 8
a 757 758 5
a 758 757 5
a 758 788 5
a 788 758 5
a 758 759 7
a 759 758 7
a 759 789 4
a 789 759 4
a 759 760 9
a 760 759 9
a 760 790 2
a 790 760 2
a 760 761 1
a 761 760 1
a 761 791 9
a 791 761 9
a 761 762 7
a 762 761 7
a 762 763 8
a 763 762 8
a 763 793 3
a 793 763 3
a 763 764 3
a 764 763 3
a 764 794 5
a 794 764 5
a 764 765 4
a 765 764 4
a 765 766 4
a 766 765 4
a 766 796 3
a 796 766 3
a 768 798 3
a 798 768 3
a 768 769 6
a 769 768 6
a 769 799 4
a 799 769 4
a 769 770 2
a 770 769 2
a 770 800 10
a 800 770 10
a 770 771 4
a 771 770 4
a 771 801 7
a 801 771 7
a 771 772 5
a 772 771 5
a 772 802 4
a 802 772 4
a 772 773 3
a 773 772 3
a 773 774 8
a 774 773 8
a 774 804 8
a 804 774 8
a 774 775 1
a 775 774 1
a 775 805 7
a 805 775 7
a 775 776 9
a 776 775 9
a 776 806 8
a 806 776 8
a 776 777 4
a 777 776 4
a 777 807 10
a 807 777 10
a 777 778 9
a 778 777 9
a 778 808 4
a 808 778 4
a 778 779 3
a 779 778 3
a 779 809 9
a 809 779 9
a 779 780 1
a 780 779 1
a 780 810 8
a 810 780 8
a 782 812 5
a 812 782 5
a 782 783 1
a 783 782 1
a 783 784 1
a 784 783 1
a 784 785 6
a 785 784 6
a 785 815 9
a 815 785 9
a 785 786 6
a 786 785 6
a 786 816 6
a 816 786 6
a 788 818 6
a 818 788 6
a 788 789 2
a 789 788 2
a 789 819 7
a 819 789 7
a 789 790 10
a 790 789 10
a 790 820 9
a 820 790 9
a 790 791 8
a 791 790 8
a 791 821 6
a 821 791 6
a 793 823 10
a 823 793 10
a 793 794 10
a 794 793 10
a 794 824 3
a 824 794 3
a 796 826 4
a 826 796 4
a 796 797 7
a 797 796 7
a 797 827 7
a 827 797 7
a 797 798 4
a 798 797 4
a 798 828 8
a 828 798 8
a 798 799 9
a 799 798 9
a 799 829 1
a 829 799 1
a 799 800 1
a 800 799 1
a 800 830 1
a 830 800 1
a 800 801 1
a 801 800 1
a 801 831 1
a 831 801 1
a 801 802 7
a 802 801 7
a 802 832 4
a 832 802 4
a 804 834 10
a 834 804 10
a 804 805 10
a 805 804 10
a 805 835 8
a 835 805 8
a 805 806 1
a 806 805 1
a 806 836 2
a 836 806 2
a 806 807 2
a 807 806 2
a 807 837 6
a 837 807 6
a 807 808 9
a 808 807 9
a 808 838 6
a 838 808 6
a 808 809 9
a 809 808 9
a 809 839 10
a 839 809 10
a 809 810 9
a 810 809 9
a 810 840 1
a 840 810 1
a 811 841 7
a 841 811 7
a 811 812 1
a 812 811 1
a 812 842 6
a 842 812 6
a 815 816 6
a 816 815 6
a 816 846 1
a 846 816 1
a 816 817 9
a 817 816 9
a 817 818 8
a 818 817 8
a 818 848 2
a 848 818 2
a 818 819 4
a 819 818 4
a 819 849 6
a 849 819 6
a 819 820 8
a 820 819 8
a 820 850 4
a 850 820 4
a 820 821 4
a 821 820 4
a 821 851 5
a 851 821 5
a 821 822 4
a 822 821 4
a 822 852 6
a 852 822 6
a 822 823 4
a 823 822 4
a 823 853 3
a 853 823 3
a 823 824 4
a 824 823 4
a 824 854 2
a 854 824 2
a 824 825 8
a 825 824 8
a 825 855 5
a 855 825 5
a 825 826 3
a 826 825 3
a 826 856 3
a 856 826 3
a 826 827 3
a 827 826 3
a 827 857 4
a 857 827 4
a 827 828 7
a 828 827 7
a 828 829 1
a 829 828 1
a 829 859 7
a 859 829 7
a 829 830 9
a 830 829 9
a 830 860 5
a 860 830 5
a 830 831 7
a 831 830 7
a 831 861 10
a 861 831 10
a 831 832 6
a 832 831 6
a 832 862 5
a 862 832 5
a 832 833 8
a 833 832 8
a 833 863 4
a 863 833 4
a 833 834 3
a 834 833 3
a 834 864 9
a 864 834 9
a 834 835 5
a 835 834 5
a 835 865 6
a 865 835 6
a 835 836 7
a 836 835 7
a 836 866 8
a 866 836 8
a 836 837 10
a 837 836 10
a 837 867 6
a 867 837 6
a 837 838 3
a 838 837 3
a 838 868 10
a 868 838 10
a 838 839 2
a 839 838 2
a 839 869 7
a 869 839 7
a 839 840 1
a 840 839 1
a 840 870 10
a 870 840 10
a 841 871 7
a 871 841 7
a 841 842 5
a 842 841 5
a 842 872 7
a 872 842 7
a 844 874 4
a 874 844 4
a 846 876 10
a 876 846 10
a 848 878 5
a 878 848 5
a 848 849 4
a 849 848 4
a 849 879 1
a 879 849 1
a 849 850 10
a 850 849 10
a 850 880 5
a 880 850 5
a 850 851 7
a 851 850 7
a 851 881 7
a 881 851 7
a 851 852 8
a 852 851 8
a 852 882 6
a 882 852 6
a 852 853 9
a 853 852 9
a 853 883 4
a 883 853 4
a 853 854 4
a 854 853 4
a 854 855 9
a 855 854 9
a 855 885 5
a 885 855 5
a 855 856 4
a 856 855 4
a 856 886 3
a 886 856 3
a 856 857 5
a 857 856 5
a 857 887 3
a 887 857 3
a 859 889 9
a 889 859 9
a 859 860 6
a 860 859 6
a 860 890 1
a 890 860 1
a 860 861 5
a 861 860 5
a 861 891 5
a 891 861 5
a 861 862 9
a 862 861 9
a 862 892 3
a 892 862 3
a 862 863 5
a 863 862 5
a 863 864 6
a 864 863 6
a 864 894 10
a 894 864 10
a 864 865 5
a 865 864 5
a 865 895 7
a 895 865 7
a 865 866 6
a 866 865 6
a 866 867 6
a 867 866 6
a 867 897 2
a 897 867 2
a 867 868 5
a 868 867 5
a 868 898 10
a 898 868 10
a 868 869 5
a 869 868 5
a 869 899 5
a 899 869 5
a 869 870 3
a 870 869 3
a 870 900 6
a 900 870 6
a 871 872 2
a 872 871 2
a 872 873 3
a 873 872 3
a 873 874 5
a 874 873 5
a 874 875 9
a 875 874 9
a 875 876 5
a 876 875 5
a 876 877 5
a 877 876 5
a 877 878 5
a 878 877 5
a 878 879 4
a 879 878 4
a 879 880 1
a 880 879 1
a 880 881 5
a 881 880 5
a 881 882 1
a 882 881 1
a 882 883 6
a 883 882 6
a 885 886 10
a 886 885 10
a 886 887 1
a 887 886 1
a 887 888 10
a 888 887 10
a 888 889 2
a 889 888 2
a 889 890 4
a 890 889 4
a 890 891 2
a 891 890 2
a 891 892 2
a 892 891 2
a 894 895 10
a 895 894 10
a 897 898 7
a 898 897 7
a 898 899 7
a 899 898 7
a 899 900 10
a 900 899 10
